c CNF file corresponding to a (partial) station packing problem.
p cnf 5792 229
1 2 3 4 5 6 7 8 9 10 11 12 13 14 0
-1 -2 0
-1 -3 0
-1 -4 0
-1 -5 0
-1 -6 0
-1 -7 0
-1 -8 0
-1 -9 0
-1 -10 0
-1 -11 0
-1 -12 0
-1 -13 0
-1 -14 0
-2 -3 0
-2 -4 0
-2 -5 0
-2 -6 0
-2 -7 0
-2 -8 0
-2 -9 0
-2 -10 0
-2 -11 0
-2 -12 0
-2 -13 0
-2 -14 0
-3 -4 0
-3 -5 0
-3 -6 0
-3 -7 0
-3 -8 0
-3 -9 0
-3 -10 0
-3 -11 0
-3 -12 0
-3 -13 0
-3 -14 0
-4 -5 0
-4 -6 0
-4 -7 0
-4 -8 0
-4 -9 0
-4 -10 0
-4 -11 0
-4 -12 0
-4 -13 0
-4 -14 0
-5 -6 0
-5 -7 0
-5 -8 0
-5 -9 0
-5 -10 0
-5 -11 0
-5 -12 0
-5 -13 0
-5 -14 0
-6 -7 0
-6 -8 0
-6 -9 0
-6 -10 0
-6 -11 0
-6 -12 0
-6 -13 0
-6 -14 0
-7 -8 0
-7 -9 0
-7 -10 0
-7 -11 0
-7 -12 0
-7 -13 0
-7 -14 0
-8 -9 0
-8 -10 0
-8 -11 0
-8 -12 0
-8 -13 0
-8 -14 0
-9 -10 0
-9 -11 0
-9 -12 0
-9 -13 0
-9 -14 0
-10 -11 0
-10 -12 0
-10 -13 0
-10 -14 0
-11 -12 0
-11 -13 0
-11 -14 0
-12 -13 0
-12 -14 0
-13 -14 0
5776 5777 5778 5779 5780 5781 5782 5783 5784 5785 5786 5787 5788 5789 5790 5791 5792 0
-5776 -5777 0
-5776 -5778 0
-5776 -5779 0
-5776 -5780 0
-5776 -5781 0
-5776 -5782 0
-5776 -5783 0
-5776 -5784 0
-5776 -5785 0
-5776 -5786 0
-5776 -5787 0
-5776 -5788 0
-5776 -5789 0
-5776 -5790 0
-5776 -5791 0
-5776 -5792 0
-5777 -5778 0
-5777 -5779 0
-5777 -5780 0
-5777 -5781 0
-5777 -5782 0
-5777 -5783 0
-5777 -5784 0
-5777 -5785 0
-5777 -5786 0
-5777 -5787 0
-5777 -5788 0
-5777 -5789 0
-5777 -5790 0
-5777 -5791 0
-5777 -5792 0
-5778 -5779 0
-5778 -5780 0
-5778 -5781 0
-5778 -5782 0
-5778 -5783 0
-5778 -5784 0
-5778 -5785 0
-5778 -5786 0
-5778 -5787 0
-5778 -5788 0
-5778 -5789 0
-5778 -5790 0
-5778 -5791 0
-5778 -5792 0
-5779 -5780 0
-5779 -5781 0
-5779 -5782 0
-5779 -5783 0
-5779 -5784 0
-5779 -5785 0
-5779 -5786 0
-5779 -5787 0
-5779 -5788 0
-5779 -5789 0
-5779 -5790 0
-5779 -5791 0
-5779 -5792 0
-5780 -5781 0
-5780 -5782 0
-5780 -5783 0
-5780 -5784 0
-5780 -5785 0
-5780 -5786 0
-5780 -5787 0
-5780 -5788 0
-5780 -5789 0
-5780 -5790 0
-5780 -5791 0
-5780 -5792 0
-5781 -5782 0
-5781 -5783 0
-5781 -5784 0
-5781 -5785 0
-5781 -5786 0
-5781 -5787 0
-5781 -5788 0
-5781 -5789 0
-5781 -5790 0
-5781 -5791 0
-5781 -5792 0
-5782 -5783 0
-5782 -5784 0
-5782 -5785 0
-5782 -5786 0
-5782 -5787 0
-5782 -5788 0
-5782 -5789 0
-5782 -5790 0
-5782 -5791 0
-5782 -5792 0
-5783 -5784 0
-5783 -5785 0
-5783 -5786 0
-5783 -5787 0
-5783 -5788 0
-5783 -5789 0
-5783 -5790 0
-5783 -5791 0
-5783 -5792 0
-5784 -5785 0
-5784 -5786 0
-5784 -5787 0
-5784 -5788 0
-5784 -5789 0
-5784 -5790 0
-5784 -5791 0
-5784 -5792 0
-5785 -5786 0
-5785 -5787 0
-5785 -5788 0
-5785 -5789 0
-5785 -5790 0
-5785 -5791 0
-5785 -5792 0
-5786 -5787 0
-5786 -5788 0
-5786 -5789 0
-5786 -5790 0
-5786 -5791 0
-5786 -5792 0
-5787 -5788 0
-5787 -5789 0
-5787 -5790 0
-5787 -5791 0
-5787 -5792 0
-5788 -5789 0
-5788 -5790 0
-5788 -5791 0
-5788 -5792 0
-5789 -5790 0
-5789 -5791 0
-5789 -5792 0
-5790 -5791 0
-5790 -5792 0
-5791 -5792 0
